(set-info :smt-lib-version 2.6)
(set-logic QF_SLIA)
(set-info :source |
Generated by: Andrew Reynolds
Generated on: 2018-04-25
Generator: Kudzu, converted to v2.6 by CVC4
Application: Symbolic Execution of Javascript
Target solver: Kaluza
Publications: "A symbolic execution framework for JavaScript" by P. Saxena, D. Akhawe, S. Hanna, F. Mao, S. McCamant, and D. Song, 2010.
|)
(set-info :license "https://creativecommons.org/licenses/by/4.0/")
(set-info :category "industrial")
(set-info :status unknown)



(declare-fun I0_13 () Int)
(declare-fun I0_18 () Int)
(declare-fun I0_2 () Int)
(declare-fun I0_23 () Int)
(declare-fun I0_4 () Int)
(declare-fun I0_8 () Int)
(declare-fun I1_8 () Int)
(declare-fun I2_8 () Int)
(declare-fun M0_10 () String)
(declare-fun M1_10 () String)
(declare-fun P0_10 () String)
(declare-fun P1_10 () String)
(declare-fun PCTEMP_LHS_1 () Int)
(declare-fun PCTEMP_LHS_2 () Int)
(declare-fun PCTEMP_LHS_3 () String)
(declare-fun PCTEMP_LHS_4 () Bool)
(declare-fun PCTEMP_LHS_4_idx_0 () String)
(declare-fun PCTEMP_LHS_4_idx_1 () String)
(declare-fun PCTEMP_LHS_4_idx_2 () String)
(declare-fun PCTEMP_LHS_5 () Int)
(declare-fun PCTEMP_LHS_6 () Int)
(declare-fun PCTEMP_LHS_7 () Int)
(declare-fun T0_10 () String)
(declare-fun T0_13 () String)
(declare-fun T0_18 () String)
(declare-fun T0_2 () String)
(declare-fun T0_23 () String)
(declare-fun T0_4 () String)
(declare-fun T1_10 () String)
(declare-fun T1_13 () String)
(declare-fun T1_18 () String)
(declare-fun T1_2 () String)
(declare-fun T1_23 () String)
(declare-fun T1_4 () String)
(declare-fun T1_8 () String)
(declare-fun T2_10 () String)
(declare-fun T2_13 () String)
(declare-fun T2_18 () String)
(declare-fun T2_2 () String)
(declare-fun T2_23 () String)
(declare-fun T2_4 () String)
(declare-fun T2_8 () String)
(declare-fun T3_13 () String)
(declare-fun T3_18 () String)
(declare-fun T3_2 () String)
(declare-fun T3_23 () String)
(declare-fun T3_4 () String)
(declare-fun T3_8 () String)
(declare-fun T4_13 () String)
(declare-fun T4_18 () String)
(declare-fun T4_2 () String)
(declare-fun T4_23 () String)
(declare-fun T4_4 () String)
(declare-fun T5_13 () String)
(declare-fun T5_18 () String)
(declare-fun T5_2 () String)
(declare-fun T5_23 () String)
(declare-fun T5_4 () String)
(declare-fun T_11 () Bool)
(declare-fun T_12 () Bool)
(declare-fun T_3 () Bool)
(declare-fun T_4 () Int)
(declare-fun T_7 () String)
(declare-fun T_9 () Bool)
(declare-fun T_SELECT_1 () Bool)
(declare-fun T_SELECT_2 () Bool)
(declare-fun T_SELECT_3 () Bool)
(declare-fun T_SELECT_4 () Bool)
(declare-fun T_SELECT_5 () Bool)
(declare-fun T_a () Bool)
(declare-fun T_b () String)
(declare-fun T_d () Bool)
(declare-fun T_e () Bool)
(declare-fun T_f () String)
(declare-fun var_0xINPUT_130 () String)
(assert (= T_SELECT_1 (not (= PCTEMP_LHS_1 (- 1)))))
(assert (ite T_SELECT_1 (and (= PCTEMP_LHS_1 (+ I0_2 0)) (= var_0xINPUT_130 (str.++ T0_2 T1_2)) (= I0_2 (str.len T4_2)) (= 0 (str.len T0_2)) (= T1_2 (str.++ T2_2 T3_2)) (= T2_2 (str.++ T4_2 T5_2)) (= T5_2 "?") (not (str.in_re T4_2 (str.to_re "?")))) (and (= PCTEMP_LHS_1 (- 1)) (= var_0xINPUT_130 (str.++ T0_2 T1_2)) (= 0 (str.len T0_2)) (not (str.in_re T1_2 (str.to_re "?"))))))
(assert (= T_SELECT_2 (not (= PCTEMP_LHS_2 (- 1)))))
(assert (ite T_SELECT_2 (and (= PCTEMP_LHS_2 (+ I0_4 0)) (= var_0xINPUT_130 (str.++ T0_4 T1_4)) (= I0_4 (str.len T4_4)) (= 0 (str.len T0_4)) (= T1_4 (str.++ T2_4 T3_4)) (= T2_4 (str.++ T4_4 T5_4)) (= T5_4 "#") (not (str.in_re T4_4 (str.to_re "#")))) (and (= PCTEMP_LHS_2 (- 1)) (= var_0xINPUT_130 (str.++ T0_4 T1_4)) (= 0 (str.len T0_4)) (not (str.in_re T1_4 (str.to_re "#"))))))
(assert (= T_3 (= PCTEMP_LHS_2 (- 1))))
(assert T_3)
(assert (= T_4 (+ PCTEMP_LHS_1 1)))
(assert (= I0_8 (- I2_8 T_4)))
(assert (>= T_4 0))
(assert (>= I2_8 T_4))
(assert (<= I2_8 I1_8))
(assert (= I2_8 I1_8))
(assert (= I0_8 (str.len PCTEMP_LHS_3)))
(assert (= var_0xINPUT_130 (str.++ T1_8 T2_8)))
(assert (= T2_8 (str.++ PCTEMP_LHS_3 T3_8)))
(assert (= T_4 (str.len T1_8)))
(assert (= I1_8 (str.len var_0xINPUT_130)))
(assert (= T2_10 PCTEMP_LHS_4_idx_2))
(assert (= T0_10 PCTEMP_LHS_3))
(assert (= M1_10 "&"))
(assert (not (str.in_re PCTEMP_LHS_4_idx_1 (str.to_re "&"))))
(assert (= P1_10 (str.++ PCTEMP_LHS_4_idx_1 M1_10)))
(assert (= T1_10 (str.++ P1_10 T2_10)))
(assert (= M0_10 "&"))
(assert (not (str.in_re PCTEMP_LHS_4_idx_0 (str.to_re "&"))))
(assert (= P0_10 (str.++ PCTEMP_LHS_4_idx_0 M0_10)))
(assert (= T0_10 (str.++ P0_10 T1_10)))
(assert PCTEMP_LHS_4)
(assert (ite PCTEMP_LHS_4 (= T_7 PCTEMP_LHS_4_idx_0) true))
(assert (= T_SELECT_3 (not (= PCTEMP_LHS_5 (- 1)))))
(assert (ite T_SELECT_3 (and (= PCTEMP_LHS_5 (+ I0_13 0)) (= T_7 (str.++ T0_13 T1_13)) (= I0_13 (str.len T4_13)) (= 0 (str.len T0_13)) (= T1_13 (str.++ T2_13 T3_13)) (= T2_13 (str.++ T4_13 T5_13)) (= T5_13 "=") (not (str.in_re T4_13 (str.to_re "=")))) (and (= PCTEMP_LHS_5 (- 1)) (= T_7 (str.++ T0_13 T1_13)) (= 0 (str.len T0_13)) (not (str.in_re T1_13 (str.to_re "="))))))
(assert (= T_9 (= PCTEMP_LHS_5 (- 1))))
(assert (= T_a (not T_9)))
(assert T_a)
(assert PCTEMP_LHS_4)
(assert (ite PCTEMP_LHS_4 (= T_b PCTEMP_LHS_4_idx_1) true))
(assert (= T_SELECT_4 (not (= PCTEMP_LHS_6 (- 1)))))
(assert (ite T_SELECT_4 (and (= PCTEMP_LHS_6 (+ I0_18 0)) (= T_b (str.++ T0_18 T1_18)) (= I0_18 (str.len T4_18)) (= 0 (str.len T0_18)) (= T1_18 (str.++ T2_18 T3_18)) (= T2_18 (str.++ T4_18 T5_18)) (= T5_18 "=") (not (str.in_re T4_18 (str.to_re "=")))) (and (= PCTEMP_LHS_6 (- 1)) (= T_b (str.++ T0_18 T1_18)) (= 0 (str.len T0_18)) (not (str.in_re T1_18 (str.to_re "="))))))
(assert (= T_d (= PCTEMP_LHS_6 (- 1))))
(assert (= T_e (not T_d)))
(assert T_e)
(assert PCTEMP_LHS_4)
(assert (ite PCTEMP_LHS_4 (= T_f PCTEMP_LHS_4_idx_2) true))
(assert (= T_SELECT_5 (not (= PCTEMP_LHS_7 (- 1)))))
(assert (ite T_SELECT_5 (and (= PCTEMP_LHS_7 (+ I0_23 0)) (= T_f (str.++ T0_23 T1_23)) (= I0_23 (str.len T4_23)) (= 0 (str.len T0_23)) (= T1_23 (str.++ T2_23 T3_23)) (= T2_23 (str.++ T4_23 T5_23)) (= T5_23 "=") (not (str.in_re T4_23 (str.to_re "=")))) (and (= PCTEMP_LHS_7 (- 1)) (= T_f (str.++ T0_23 T1_23)) (= 0 (str.len T0_23)) (not (str.in_re T1_23 (str.to_re "="))))))
(assert (= T_11 (not (= PCTEMP_LHS_7 6))))
(assert (= T_12 (not T_11)))
(assert T_12)
(check-sat)

